certificates/rado_a11_c41_N30.cnf
c Rad2 upper bound instance: x1 + 11*x2 - x3 = 41, interval [1,30]
p cnf 30 162
1 4 0
-1 -4 0
1 5 15 0
-1 -5 -15 0
1 6 26 0
-1 -6 -26 0
2 4 5 0
-2 -4 -5 0
2 5 16 0
-2 -5 -16 0
2 6 27 0
-2 -6 -27 0
3 4 6 0
-3 -4 -6 0
3 5 17 0
-3 -5 -17 0
3 6 28 0
-3 -6 -28 0
4 7 0
-4 -7 0
4 5 18 0
-4 -5 -18 0
4 6 29 0
-4 -6 -29 0
4 5 8 0
-4 -5 -8 0
5 19 0
-5 -19 0
5 6 30 0
-5 -6 -30 0
4 6 9 0
-4 -6 -9 0
5 6 20 0
-5 -6 -20 0
4 7 10 0
-4 -7 -10 0
5 7 21 0
-5 -7 -21 0
4 8 11 0
-4 -8 -11 0
5 8 22 0
-5 -8 -22 0
1 3 9 0
-1 -3 -9 0
4 9 12 0
-4 -9 -12 0
5 9 23 0
-5 -9 -23 0
2 3 10 0
-2 -3 -10 0
4 10 13 0
-4 -10 -13 0
5 10 24 0
-5 -10 -24 0
3 11 0
-3 -11 0
4 11 14 0
-4 -11 -14 0
5 11 25 0
-5 -11 -25 0
3 4 12 0
-3 -4 -12 0
4 12 15 0
-4 -12 -15 0
5 12 26 0
-5 -12 -26 0
3 5 13 0
-3 -5 -13 0
4 13 16 0
-4 -13 -16 0
5 13 27 0
-5 -13 -27 0
3 6 14 0
-3 -6 -14 0
4 14 17 0
-4 -14 -17 0
5 14 28 0
-5 -14 -28 0
3 7 15 0
-3 -7 -15 0
4 15 18 0
-4 -15 -18 0
5 15 29 0
-5 -15 -29 0
3 8 16 0
-3 -8 -16 0
4 16 19 0
-4 -16 -19 0
5 16 30 0
-5 -16 -30 0
3 9 17 0
-3 -9 -17 0
4 17 20 0
-4 -17 -20 0
3 10 18 0
-3 -10 -18 0
4 18 21 0
-4 -18 -21 0
3 11 19 0
-3 -11 -19 0
4 19 22 0
-4 -19 -22 0
1 2 20 0
-1 -2 -20 0
3 12 20 0
-3 -12 -20 0
4 20 23 0
-4 -20 -23 0
2 21 0
-2 -21 0
3 13 21 0
-3 -13 -21 0
4 21 24 0
-4 -21 -24 0
2 3 22 0
-2 -3 -22 0
3 14 22 0
-3 -14 -22 0
4 22 25 0
-4 -22 -25 0
2 4 23 0
-2 -4 -23 0
3 15 23 0
-3 -15 -23 0
4 23 26 0
-4 -23 -26 0
2 5 24 0
-2 -5 -24 0
3 16 24 0
-3 -16 -24 0
4 24 27 0
-4 -24 -27 0
2 6 25 0
-2 -6 -25 0
3 17 25 0
-3 -17 -25 0
4 25 28 0
-4 -25 -28 0
2 7 26 0
-2 -7 -26 0
3 18 26 0
-3 -18 -26 0
4 26 29 0
-4 -26 -29 0
2 8 27 0
-2 -8 -27 0
3 19 27 0
-3 -19 -27 0
4 27 30 0
-4 -27 -30 0
2 9 28 0
-2 -9 -28 0
3 20 28 0
-3 -20 -28 0
2 10 29 0
-2 -10 -29 0
3 21 29 0
-3 -21 -29 0
2 11 30 0
-2 -11 -30 0
3 22 30 0
-3 -22 -30 0
