certificates/rado_a11_c41_N30.drat
-26 4 0
-9 4 -28 0
-27 -28 -30 0
4 5 9 -30 0
-4 -29 0
9 4 -30 0
d 4 5 9 -30 0
4 -30 0
d 9 4 -30 0
-2 -4 0
-30 0
5 0
-19 0
4 0
-1 0
-7 0
-29 0
-2 0
-18 0
-8 0
20 0
21 0
26 0
11 0
10 0
27 0
-23 0
-17 0
-6 0
-24 0
-12 0
-3 0
-14 0
-25 0
-13 0
0
